\ENCODING=ISO-8859-1
\Problem name: 

Minimize
 obj: 1e+40 a_0_0m0_0#0 + 1e+40 a_0_0m0_1#1 + 1e+40 a_0_0m0_2#2
      + 1e+40 a_0_0m0_3#3 + 1e+40 a_0_1m0_0#4 + 1e+40 a_0_1m0_1#5
      + 1e+40 a_0_1m0_2#6 + 1e+40 a_0_1m0_3#7 + 1e+40 a_0_2m0_0#8
      + 1e+40 a_0_2m0_1#9 + 1e+40 a_0_2m0_2#10 + 1e+40 a_0_2m0_3#11
      + 1e+40 a_0_3m0_0#12 + 1e+40 a_0_3m0_1#13 + 1e+40 a_0_3m0_2#14
      + 1e+40 a_0_3m0_3#15 + 1e+40 a_0_0m1_0#16 + 3 a_0_0m1_1#17 + a_0_0m1_2#18
      + 2 a_0_0m1_3#19 + 3 a_0_1m1_0#20 + 1e+40 a_0_1m1_1#21 + 3 a_0_1m1_2#22
      + a_0_1m1_3#23 + a_0_2m1_0#24 + 3 a_0_2m1_1#25 + 1e+40 a_0_2m1_2#26
      + 2 a_0_2m1_3#27 + 2 a_0_3m1_0#28 + a_0_3m1_1#29 + 2 a_0_3m1_2#30
      + 1e+40 a_0_3m1_3#31 + 1e+40 a_0_0m2_0#32 + 3 a_0_0m2_1#33 + a_0_0m2_2#34
      + 2 a_0_0m2_3#35 + 3 a_0_1m2_0#36 + 1e+40 a_0_1m2_1#37 + 3 a_0_1m2_2#38
      + a_0_1m2_3#39 + a_0_2m2_0#40 + 3 a_0_2m2_1#41 + 1e+40 a_0_2m2_2#42
      + 2 a_0_2m2_3#43 + 2 a_0_3m2_0#44 + a_0_3m2_1#45 + 2 a_0_3m2_2#46
      + 1e+40 a_0_3m2_3#47 + 1e+40 a_1_0m0_0#48 + 3 a_1_0m0_1#49 + a_1_0m0_2#50
      + 2 a_1_0m0_3#51 + 3 a_1_1m0_0#52 + 1e+40 a_1_1m0_1#53 + 3 a_1_1m0_2#54
      + a_1_1m0_3#55 + a_1_2m0_0#56 + 3 a_1_2m0_1#57 + 1e+40 a_1_2m0_2#58
      + 2 a_1_2m0_3#59 + 2 a_1_3m0_0#60 + a_1_3m0_1#61 + 2 a_1_3m0_2#62
      + 1e+40 a_1_3m0_3#63 + 1e+40 a_1_0m1_0#64 + 1e+40 a_1_0m1_1#65
      + 1e+40 a_1_0m1_2#66 + 1e+40 a_1_0m1_3#67 + 1e+40 a_1_1m1_0#68
      + 1e+40 a_1_1m1_1#69 + 1e+40 a_1_1m1_2#70 + 1e+40 a_1_1m1_3#71
      + 1e+40 a_1_2m1_0#72 + 1e+40 a_1_2m1_1#73 + 1e+40 a_1_2m1_2#74
      + 1e+40 a_1_2m1_3#75 + 1e+40 a_1_3m1_0#76 + 1e+40 a_1_3m1_1#77
      + 1e+40 a_1_3m1_2#78 + 1e+40 a_1_3m1_3#79 + 1e+40 a_1_0m2_0#80
      + 3 a_1_0m2_1#81 + a_1_0m2_2#82 + 2 a_1_0m2_3#83 + 3 a_1_1m2_0#84
      + 1e+40 a_1_1m2_1#85 + 3 a_1_1m2_2#86 + a_1_1m2_3#87 + a_1_2m2_0#88
      + 3 a_1_2m2_1#89 + 1e+40 a_1_2m2_2#90 + 2 a_1_2m2_3#91 + 2 a_1_3m2_0#92
      + a_1_3m2_1#93 + 2 a_1_3m2_2#94 + 1e+40 a_1_3m2_3#95 + 1e+40 a_2_0m0_0#96
      + 3 a_2_0m0_1#97 + a_2_0m0_2#98 + 2 a_2_0m0_3#99 + 3 a_2_1m0_0#100
      + 1e+40 a_2_1m0_1#101 + 3 a_2_1m0_2#102 + a_2_1m0_3#103 + a_2_2m0_0#104
      + 3 a_2_2m0_1#105 + 1e+40 a_2_2m0_2#106 + 2 a_2_2m0_3#107
      + 2 a_2_3m0_0#108 + a_2_3m0_1#109 + 2 a_2_3m0_2#110 + 1e+40 a_2_3m0_3#111
      + 1e+40 a_2_0m1_0#112 + 3 a_2_0m1_1#113 + a_2_0m1_2#114 + 2 a_2_0m1_3#115
      + 3 a_2_1m1_0#116 + 1e+40 a_2_1m1_1#117 + 3 a_2_1m1_2#118 + a_2_1m1_3#119
      + a_2_2m1_0#120 + 3 a_2_2m1_1#121 + 1e+40 a_2_2m1_2#122 + 2 a_2_2m1_3#123
      + 2 a_2_3m1_0#124 + a_2_3m1_1#125 + 2 a_2_3m1_2#126 + 1e+40 a_2_3m1_3#127
      + 1e+40 a_2_0m2_0#128 + 1e+40 a_2_0m2_1#129 + 1e+40 a_2_0m2_2#130
      + 1e+40 a_2_0m2_3#131 + 1e+40 a_2_1m2_0#132 + 1e+40 a_2_1m2_1#133
      + 1e+40 a_2_1m2_2#134 + 1e+40 a_2_1m2_3#135 + 1e+40 a_2_2m2_0#136
      + 1e+40 a_2_2m2_1#137 + 1e+40 a_2_2m2_2#138 + 1e+40 a_2_2m2_3#139
      + 1e+40 a_2_3m2_0#140 + 1e+40 a_2_3m2_1#141 + 1e+40 a_2_3m2_2#142
      + 1e+40 a_2_3m2_3#143
Subject To
 c1:   a_0_0#144 + a_1_0#148 + a_2_0#152  = 1
 c2:   a_0_1#145 + a_1_1#149 + a_2_1#153  = 1
 c3:   a_0_2#146 + a_1_2#150 + a_2_2#154  = 1
 c4:   a_0_3#147 + a_1_3#151 + a_2_3#155  = 1
 c5:   - a_0_0m1_0#16 + a_0_0#144 + a_1_0#148 <= 1
 c6:   - a_0_0m2_0#32 + a_0_0#144 + a_2_0#152 <= 1
 c7:   - a_1_0m0_0#48 + a_0_0#144 + a_1_0#148 <= 1
 c8:   - a_1_0m2_0#80 + a_1_0#148 + a_2_0#152 <= 1
 c9:   - a_2_0m0_0#96 + a_0_0#144 + a_2_0#152 <= 1
 c10:  - a_2_0m1_0#112 + a_1_0#148 + a_2_0#152 <= 1
 c11:  - a_0_0m0_1#1 + a_0_0#144 + a_0_1#145 <= 1
 c12:  - a_0_0m1_1#17 + a_0_0#144 + a_1_1#149 <= 1
 c13:  - a_0_0m2_1#33 + a_0_0#144 + a_2_1#153 <= 1
 c14:  - a_1_0m0_1#49 + a_0_1#145 + a_1_0#148 <= 1
 c15:  - a_1_0m1_1#65 + a_1_0#148 + a_1_1#149 <= 1
 c16:  - a_1_0m2_1#81 + a_1_0#148 + a_2_1#153 <= 1
 c17:  - a_2_0m0_1#97 + a_0_1#145 + a_2_0#152 <= 1
 c18:  - a_2_0m1_1#113 + a_1_1#149 + a_2_0#152 <= 1
 c19:  - a_2_0m2_1#129 + a_2_0#152 + a_2_1#153 <= 1
 c20:  - a_0_0m0_2#2 + a_0_0#144 + a_0_2#146 <= 1
 c21:  - a_0_0m1_2#18 + a_0_0#144 + a_1_2#150 <= 1
 c22:  - a_0_0m2_2#34 + a_0_0#144 + a_2_2#154 <= 1
 c23:  - a_1_0m0_2#50 + a_0_2#146 + a_1_0#148 <= 1
 c24:  - a_1_0m1_2#66 + a_1_0#148 + a_1_2#150 <= 1
 c25:  - a_1_0m2_2#82 + a_1_0#148 + a_2_2#154 <= 1
 c26:  - a_2_0m0_2#98 + a_0_2#146 + a_2_0#152 <= 1
 c27:  - a_2_0m1_2#114 + a_1_2#150 + a_2_0#152 <= 1
 c28:  - a_2_0m2_2#130 + a_2_0#152 + a_2_2#154 <= 1
 c29:  - a_0_0m0_3#3 + a_0_0#144 + a_0_3#147 <= 1
 c30:  - a_0_0m1_3#19 + a_0_0#144 + a_1_3#151 <= 1
 c31:  - a_0_0m2_3#35 + a_0_0#144 + a_2_3#155 <= 1
 c32:  - a_1_0m0_3#51 + a_0_3#147 + a_1_0#148 <= 1
 c33:  - a_1_0m1_3#67 + a_1_0#148 + a_1_3#151 <= 1
 c34:  - a_1_0m2_3#83 + a_1_0#148 + a_2_3#155 <= 1
 c35:  - a_2_0m0_3#99 + a_0_3#147 + a_2_0#152 <= 1
 c36:  - a_2_0m1_3#115 + a_1_3#151 + a_2_0#152 <= 1
 c37:  - a_2_0m2_3#131 + a_2_0#152 + a_2_3#155 <= 1
 c38:  - a_0_1m0_0#4 + a_0_0#144 + a_0_1#145 <= 1
 c39:  - a_0_1m1_0#20 + a_0_1#145 + a_1_0#148 <= 1
 c40:  - a_0_1m2_0#36 + a_0_1#145 + a_2_0#152 <= 1
 c41:  - a_1_1m0_0#52 + a_0_0#144 + a_1_1#149 <= 1
 c42:  - a_1_1m1_0#68 + a_1_0#148 + a_1_1#149 <= 1
 c43:  - a_1_1m2_0#84 + a_1_1#149 + a_2_0#152 <= 1
 c44:  - a_2_1m0_0#100 + a_0_0#144 + a_2_1#153 <= 1
 c45:  - a_2_1m1_0#116 + a_1_0#148 + a_2_1#153 <= 1
 c46:  - a_2_1m2_0#132 + a_2_0#152 + a_2_1#153 <= 1
 c47:  - a_0_1m1_1#21 + a_0_1#145 + a_1_1#149 <= 1
 c48:  - a_0_1m2_1#37 + a_0_1#145 + a_2_1#153 <= 1
 c49:  - a_1_1m0_1#53 + a_0_1#145 + a_1_1#149 <= 1
 c50:  - a_1_1m2_1#85 + a_1_1#149 + a_2_1#153 <= 1
 c51:  - a_2_1m0_1#101 + a_0_1#145 + a_2_1#153 <= 1
 c52:  - a_2_1m1_1#117 + a_1_1#149 + a_2_1#153 <= 1
 c53:  - a_0_1m0_2#6 + a_0_1#145 + a_0_2#146 <= 1
 c54:  - a_0_1m1_2#22 + a_0_1#145 + a_1_2#150 <= 1
 c55:  - a_0_1m2_2#38 + a_0_1#145 + a_2_2#154 <= 1
 c56:  - a_1_1m0_2#54 + a_0_2#146 + a_1_1#149 <= 1
 c57:  - a_1_1m1_2#70 + a_1_1#149 + a_1_2#150 <= 1
 c58:  - a_1_1m2_2#86 + a_1_1#149 + a_2_2#154 <= 1
 c59:  - a_2_1m0_2#102 + a_0_2#146 + a_2_1#153 <= 1
 c60:  - a_2_1m1_2#118 + a_1_2#150 + a_2_1#153 <= 1
 c61:  - a_2_1m2_2#134 + a_2_1#153 + a_2_2#154 <= 1
 c62:  - a_0_1m0_3#7 + a_0_1#145 + a_0_3#147 <= 1
 c63:  - a_0_1m1_3#23 + a_0_1#145 + a_1_3#151 <= 1
 c64:  - a_0_1m2_3#39 + a_0_1#145 + a_2_3#155 <= 1
 c65:  - a_1_1m0_3#55 + a_0_3#147 + a_1_1#149 <= 1
 c66:  - a_1_1m1_3#71 + a_1_1#149 + a_1_3#151 <= 1
 c67:  - a_1_1m2_3#87 + a_1_1#149 + a_2_3#155 <= 1
 c68:  - a_2_1m0_3#103 + a_0_3#147 + a_2_1#153 <= 1
 c69:  - a_2_1m1_3#119 + a_1_3#151 + a_2_1#153 <= 1
 c70:  - a_2_1m2_3#135 + a_2_1#153 + a_2_3#155 <= 1
 c71:  - a_0_2m0_0#8 + a_0_0#144 + a_0_2#146 <= 1
 c72:  - a_0_2m1_0#24 + a_0_2#146 + a_1_0#148 <= 1
 c73:  - a_0_2m2_0#40 + a_0_2#146 + a_2_0#152 <= 1
 c74:  - a_1_2m0_0#56 + a_0_0#144 + a_1_2#150 <= 1
 c75:  - a_1_2m1_0#72 + a_1_0#148 + a_1_2#150 <= 1
 c76:  - a_1_2m2_0#88 + a_1_2#150 + a_2_0#152 <= 1
 c77:  - a_2_2m0_0#104 + a_0_0#144 + a_2_2#154 <= 1
 c78:  - a_2_2m1_0#120 + a_1_0#148 + a_2_2#154 <= 1
 c79:  - a_2_2m2_0#136 + a_2_0#152 + a_2_2#154 <= 1
 c80:  - a_0_2m0_1#9 + a_0_1#145 + a_0_2#146 <= 1
 c81:  - a_0_2m1_1#25 + a_0_2#146 + a_1_1#149 <= 1
 c82:  - a_0_2m2_1#41 + a_0_2#146 + a_2_1#153 <= 1
 c83:  - a_1_2m0_1#57 + a_0_1#145 + a_1_2#150 <= 1
 c84:  - a_1_2m1_1#73 + a_1_1#149 + a_1_2#150 <= 1
 c85:  - a_1_2m2_1#89 + a_1_2#150 + a_2_1#153 <= 1
 c86:  - a_2_2m0_1#105 + a_0_1#145 + a_2_2#154 <= 1
 c87:  - a_2_2m1_1#121 + a_1_1#149 + a_2_2#154 <= 1
 c88:  - a_2_2m2_1#137 + a_2_1#153 + a_2_2#154 <= 1
 c89:  - a_0_2m1_2#26 + a_0_2#146 + a_1_2#150 <= 1
 c90:  - a_0_2m2_2#42 + a_0_2#146 + a_2_2#154 <= 1
 c91:  - a_1_2m0_2#58 + a_0_2#146 + a_1_2#150 <= 1
 c92:  - a_1_2m2_2#90 + a_1_2#150 + a_2_2#154 <= 1
 c93:  - a_2_2m0_2#106 + a_0_2#146 + a_2_2#154 <= 1
 c94:  - a_2_2m1_2#122 + a_1_2#150 + a_2_2#154 <= 1
 c95:  - a_0_2m0_3#11 + a_0_2#146 + a_0_3#147 <= 1
 c96:  - a_0_2m1_3#27 + a_0_2#146 + a_1_3#151 <= 1
 c97:  - a_0_2m2_3#43 + a_0_2#146 + a_2_3#155 <= 1
 c98:  - a_1_2m0_3#59 + a_0_3#147 + a_1_2#150 <= 1
 c99:  - a_1_2m1_3#75 + a_1_2#150 + a_1_3#151 <= 1
 c100: - a_1_2m2_3#91 + a_1_2#150 + a_2_3#155 <= 1
 c101: - a_2_2m0_3#107 + a_0_3#147 + a_2_2#154 <= 1
 c102: - a_2_2m1_3#123 + a_1_3#151 + a_2_2#154 <= 1
 c103: - a_2_2m2_3#139 + a_2_2#154 + a_2_3#155 <= 1
 c104: - a_0_3m0_0#12 + a_0_0#144 + a_0_3#147 <= 1
 c105: - a_0_3m1_0#28 + a_0_3#147 + a_1_0#148 <= 1
 c106: - a_0_3m2_0#44 + a_0_3#147 + a_2_0#152 <= 1
 c107: - a_1_3m0_0#60 + a_0_0#144 + a_1_3#151 <= 1
 c108: - a_1_3m1_0#76 + a_1_0#148 + a_1_3#151 <= 1
 c109: - a_1_3m2_0#92 + a_1_3#151 + a_2_0#152 <= 1
 c110: - a_2_3m0_0#108 + a_0_0#144 + a_2_3#155 <= 1
 c111: - a_2_3m1_0#124 + a_1_0#148 + a_2_3#155 <= 1
 c112: - a_2_3m2_0#140 + a_2_0#152 + a_2_3#155 <= 1
 c113: - a_0_3m0_1#13 + a_0_1#145 + a_0_3#147 <= 1
 c114: - a_0_3m1_1#29 + a_0_3#147 + a_1_1#149 <= 1
 c115: - a_0_3m2_1#45 + a_0_3#147 + a_2_1#153 <= 1
 c116: - a_1_3m0_1#61 + a_0_1#145 + a_1_3#151 <= 1
 c117: - a_1_3m1_1#77 + a_1_1#149 + a_1_3#151 <= 1
 c118: - a_1_3m2_1#93 + a_1_3#151 + a_2_1#153 <= 1
 c119: - a_2_3m0_1#109 + a_0_1#145 + a_2_3#155 <= 1
 c120: - a_2_3m1_1#125 + a_1_1#149 + a_2_3#155 <= 1
 c121: - a_2_3m2_1#141 + a_2_1#153 + a_2_3#155 <= 1
 c122: - a_0_3m0_2#14 + a_0_2#146 + a_0_3#147 <= 1
 c123: - a_0_3m1_2#30 + a_0_3#147 + a_1_2#150 <= 1
 c124: - a_0_3m2_2#46 + a_0_3#147 + a_2_2#154 <= 1
 c125: - a_1_3m0_2#62 + a_0_2#146 + a_1_3#151 <= 1
 c126: - a_1_3m1_2#78 + a_1_2#150 + a_1_3#151 <= 1
 c127: - a_1_3m2_2#94 + a_1_3#151 + a_2_2#154 <= 1
 c128: - a_2_3m0_2#110 + a_0_2#146 + a_2_3#155 <= 1
 c129: - a_2_3m1_2#126 + a_1_2#150 + a_2_3#155 <= 1
 c130: - a_2_3m2_2#142 + a_2_2#154 + a_2_3#155 <= 1
 c131: - a_0_3m1_3#31 + a_0_3#147 + a_1_3#151 <= 1
 c132: - a_0_3m2_3#47 + a_0_3#147 + a_2_3#155 <= 1
 c133: - a_1_3m0_3#63 + a_0_3#147 + a_1_3#151 <= 1
 c134: - a_1_3m2_3#95 + a_1_3#151 + a_2_3#155 <= 1
 c135: - a_2_3m0_3#111 + a_0_3#147 + a_2_3#155 <= 1
 c136: - a_2_3m1_3#127 + a_1_3#151 + a_2_3#155 <= 1
 c137: a_0_0#144 + a_0_1#145 + a_0_2#146 + a_0_3#147 <= 1
 c138: a_1_0#148 + a_1_1#149 + a_1_2#150 + a_1_3#151 <= 1
 c139: a_2_0#152 + a_2_1#153 + a_2_2#154 + a_2_3#155 <= 2
Bounds
 0 <= a_0_0m0_0#0 <= 1
 0 <= a_0_0m0_1#1 <= 1
 0 <= a_0_0m0_2#2 <= 1
 0 <= a_0_0m0_3#3 <= 1
 0 <= a_0_1m0_0#4 <= 1
 0 <= a_0_1m0_1#5 <= 1
 0 <= a_0_1m0_2#6 <= 1
 0 <= a_0_1m0_3#7 <= 1
 0 <= a_0_2m0_0#8 <= 1
 0 <= a_0_2m0_1#9 <= 1
 0 <= a_0_2m0_2#10 <= 1
 0 <= a_0_2m0_3#11 <= 1
 0 <= a_0_3m0_0#12 <= 1
 0 <= a_0_3m0_1#13 <= 1
 0 <= a_0_3m0_2#14 <= 1
 0 <= a_0_3m0_3#15 <= 1
 0 <= a_0_0m1_0#16 <= 1
 0 <= a_0_0m1_1#17 <= 1
 0 <= a_0_0m1_2#18 <= 1
 0 <= a_0_0m1_3#19 <= 1
 0 <= a_0_1m1_0#20 <= 1
 0 <= a_0_1m1_1#21 <= 1
 0 <= a_0_1m1_2#22 <= 1
 0 <= a_0_1m1_3#23 <= 1
 0 <= a_0_2m1_0#24 <= 1
 0 <= a_0_2m1_1#25 <= 1
 0 <= a_0_2m1_2#26 <= 1
 0 <= a_0_2m1_3#27 <= 1
 0 <= a_0_3m1_0#28 <= 1
 0 <= a_0_3m1_1#29 <= 1
 0 <= a_0_3m1_2#30 <= 1
 0 <= a_0_3m1_3#31 <= 1
 0 <= a_0_0m2_0#32 <= 1
 0 <= a_0_0m2_1#33 <= 1
 0 <= a_0_0m2_2#34 <= 1
 0 <= a_0_0m2_3#35 <= 1
 0 <= a_0_1m2_0#36 <= 1
 0 <= a_0_1m2_1#37 <= 1
 0 <= a_0_1m2_2#38 <= 1
 0 <= a_0_1m2_3#39 <= 1
 0 <= a_0_2m2_0#40 <= 1
 0 <= a_0_2m2_1#41 <= 1
 0 <= a_0_2m2_2#42 <= 1
 0 <= a_0_2m2_3#43 <= 1
 0 <= a_0_3m2_0#44 <= 1
 0 <= a_0_3m2_1#45 <= 1
 0 <= a_0_3m2_2#46 <= 1
 0 <= a_0_3m2_3#47 <= 1
 0 <= a_1_0m0_0#48 <= 1
 0 <= a_1_0m0_1#49 <= 1
 0 <= a_1_0m0_2#50 <= 1
 0 <= a_1_0m0_3#51 <= 1
 0 <= a_1_1m0_0#52 <= 1
 0 <= a_1_1m0_1#53 <= 1
 0 <= a_1_1m0_2#54 <= 1
 0 <= a_1_1m0_3#55 <= 1
 0 <= a_1_2m0_0#56 <= 1
 0 <= a_1_2m0_1#57 <= 1
 0 <= a_1_2m0_2#58 <= 1
 0 <= a_1_2m0_3#59 <= 1
 0 <= a_1_3m0_0#60 <= 1
 0 <= a_1_3m0_1#61 <= 1
 0 <= a_1_3m0_2#62 <= 1
 0 <= a_1_3m0_3#63 <= 1
 0 <= a_1_0m1_0#64 <= 1
 0 <= a_1_0m1_1#65 <= 1
 0 <= a_1_0m1_2#66 <= 1
 0 <= a_1_0m1_3#67 <= 1
 0 <= a_1_1m1_0#68 <= 1
 0 <= a_1_1m1_1#69 <= 1
 0 <= a_1_1m1_2#70 <= 1
 0 <= a_1_1m1_3#71 <= 1
 0 <= a_1_2m1_0#72 <= 1
 0 <= a_1_2m1_1#73 <= 1
 0 <= a_1_2m1_2#74 <= 1
 0 <= a_1_2m1_3#75 <= 1
 0 <= a_1_3m1_0#76 <= 1
 0 <= a_1_3m1_1#77 <= 1
 0 <= a_1_3m1_2#78 <= 1
 0 <= a_1_3m1_3#79 <= 1
 0 <= a_1_0m2_0#80 <= 1
 0 <= a_1_0m2_1#81 <= 1
 0 <= a_1_0m2_2#82 <= 1
 0 <= a_1_0m2_3#83 <= 1
 0 <= a_1_1m2_0#84 <= 1
 0 <= a_1_1m2_1#85 <= 1
 0 <= a_1_1m2_2#86 <= 1
 0 <= a_1_1m2_3#87 <= 1
 0 <= a_1_2m2_0#88 <= 1
 0 <= a_1_2m2_1#89 <= 1
 0 <= a_1_2m2_2#90 <= 1
 0 <= a_1_2m2_3#91 <= 1
 0 <= a_1_3m2_0#92 <= 1
 0 <= a_1_3m2_1#93 <= 1
 0 <= a_1_3m2_2#94 <= 1
 0 <= a_1_3m2_3#95 <= 1
 0 <= a_2_0m0_0#96 <= 1
 0 <= a_2_0m0_1#97 <= 1
 0 <= a_2_0m0_2#98 <= 1
 0 <= a_2_0m0_3#99 <= 1
 0 <= a_2_1m0_0#100 <= 1
 0 <= a_2_1m0_1#101 <= 1
 0 <= a_2_1m0_2#102 <= 1
 0 <= a_2_1m0_3#103 <= 1
 0 <= a_2_2m0_0#104 <= 1
 0 <= a_2_2m0_1#105 <= 1
 0 <= a_2_2m0_2#106 <= 1
 0 <= a_2_2m0_3#107 <= 1
 0 <= a_2_3m0_0#108 <= 1
 0 <= a_2_3m0_1#109 <= 1
 0 <= a_2_3m0_2#110 <= 1
 0 <= a_2_3m0_3#111 <= 1
 0 <= a_2_0m1_0#112 <= 1
 0 <= a_2_0m1_1#113 <= 1
 0 <= a_2_0m1_2#114 <= 1
 0 <= a_2_0m1_3#115 <= 1
 0 <= a_2_1m1_0#116 <= 1
 0 <= a_2_1m1_1#117 <= 1
 0 <= a_2_1m1_2#118 <= 1
 0 <= a_2_1m1_3#119 <= 1
 0 <= a_2_2m1_0#120 <= 1
 0 <= a_2_2m1_1#121 <= 1
 0 <= a_2_2m1_2#122 <= 1
 0 <= a_2_2m1_3#123 <= 1
 0 <= a_2_3m1_0#124 <= 1
 0 <= a_2_3m1_1#125 <= 1
 0 <= a_2_3m1_2#126 <= 1
 0 <= a_2_3m1_3#127 <= 1
 0 <= a_2_0m2_0#128 <= 1
 0 <= a_2_0m2_1#129 <= 1
 0 <= a_2_0m2_2#130 <= 1
 0 <= a_2_0m2_3#131 <= 1
 0 <= a_2_1m2_0#132 <= 1
 0 <= a_2_1m2_1#133 <= 1
 0 <= a_2_1m2_2#134 <= 1
 0 <= a_2_1m2_3#135 <= 1
 0 <= a_2_2m2_0#136 <= 1
 0 <= a_2_2m2_1#137 <= 1
 0 <= a_2_2m2_2#138 <= 1
 0 <= a_2_2m2_3#139 <= 1
 0 <= a_2_3m2_0#140 <= 1
 0 <= a_2_3m2_1#141 <= 1
 0 <= a_2_3m2_2#142 <= 1
 0 <= a_2_3m2_3#143 <= 1
 0 <= a_0_0#144 <= 1
 0 <= a_0_1#145 <= 1
 0 <= a_0_2#146 <= 1
 0 <= a_0_3#147 <= 1
 0 <= a_1_0#148 <= 1
 0 <= a_1_1#149 <= 1
 0 <= a_1_2#150 <= 1
 0 <= a_1_3#151 <= 1
 0 <= a_2_0#152 <= 1
 0 <= a_2_1#153 <= 1
 0 <= a_2_2#154 <= 1
 0 <= a_2_3#155 <= 1
Binaries
 a_0_0m0_0#0  a_0_0m0_1#1  a_0_0m0_2#2  a_0_0m0_3#3  a_0_1m0_0#4  a_0_1m0_1#5 
 a_0_1m0_2#6  a_0_1m0_3#7  a_0_2m0_0#8  a_0_2m0_1#9  a_0_2m0_2#10 
 a_0_2m0_3#11  a_0_3m0_0#12  a_0_3m0_1#13  a_0_3m0_2#14  a_0_3m0_3#15 
 a_0_0m1_0#16  a_0_0m1_1#17  a_0_0m1_2#18  a_0_0m1_3#19  a_0_1m1_0#20 
 a_0_1m1_1#21  a_0_1m1_2#22  a_0_1m1_3#23  a_0_2m1_0#24  a_0_2m1_1#25 
 a_0_2m1_2#26  a_0_2m1_3#27  a_0_3m1_0#28  a_0_3m1_1#29  a_0_3m1_2#30 
 a_0_3m1_3#31  a_0_0m2_0#32  a_0_0m2_1#33  a_0_0m2_2#34  a_0_0m2_3#35 
 a_0_1m2_0#36  a_0_1m2_1#37  a_0_1m2_2#38  a_0_1m2_3#39  a_0_2m2_0#40 
 a_0_2m2_1#41  a_0_2m2_2#42  a_0_2m2_3#43  a_0_3m2_0#44  a_0_3m2_1#45 
 a_0_3m2_2#46  a_0_3m2_3#47  a_1_0m0_0#48  a_1_0m0_1#49  a_1_0m0_2#50 
 a_1_0m0_3#51  a_1_1m0_0#52  a_1_1m0_1#53  a_1_1m0_2#54  a_1_1m0_3#55 
 a_1_2m0_0#56  a_1_2m0_1#57  a_1_2m0_2#58  a_1_2m0_3#59  a_1_3m0_0#60 
 a_1_3m0_1#61  a_1_3m0_2#62  a_1_3m0_3#63  a_1_0m1_0#64  a_1_0m1_1#65 
 a_1_0m1_2#66  a_1_0m1_3#67  a_1_1m1_0#68  a_1_1m1_1#69  a_1_1m1_2#70 
 a_1_1m1_3#71  a_1_2m1_0#72  a_1_2m1_1#73  a_1_2m1_2#74  a_1_2m1_3#75 
 a_1_3m1_0#76  a_1_3m1_1#77  a_1_3m1_2#78  a_1_3m1_3#79  a_1_0m2_0#80 
 a_1_0m2_1#81  a_1_0m2_2#82  a_1_0m2_3#83  a_1_1m2_0#84  a_1_1m2_1#85 
 a_1_1m2_2#86  a_1_1m2_3#87  a_1_2m2_0#88  a_1_2m2_1#89  a_1_2m2_2#90 
 a_1_2m2_3#91  a_1_3m2_0#92  a_1_3m2_1#93  a_1_3m2_2#94  a_1_3m2_3#95 
 a_2_0m0_0#96  a_2_0m0_1#97  a_2_0m0_2#98  a_2_0m0_3#99  a_2_1m0_0#100 
 a_2_1m0_1#101  a_2_1m0_2#102  a_2_1m0_3#103  a_2_2m0_0#104  a_2_2m0_1#105 
 a_2_2m0_2#106  a_2_2m0_3#107  a_2_3m0_0#108  a_2_3m0_1#109  a_2_3m0_2#110 
 a_2_3m0_3#111  a_2_0m1_0#112  a_2_0m1_1#113  a_2_0m1_2#114  a_2_0m1_3#115 
 a_2_1m1_0#116  a_2_1m1_1#117  a_2_1m1_2#118  a_2_1m1_3#119  a_2_2m1_0#120 
 a_2_2m1_1#121  a_2_2m1_2#122  a_2_2m1_3#123  a_2_3m1_0#124  a_2_3m1_1#125 
 a_2_3m1_2#126  a_2_3m1_3#127  a_2_0m2_0#128  a_2_0m2_1#129  a_2_0m2_2#130 
 a_2_0m2_3#131  a_2_1m2_0#132  a_2_1m2_1#133  a_2_1m2_2#134  a_2_1m2_3#135 
 a_2_2m2_0#136  a_2_2m2_1#137  a_2_2m2_2#138  a_2_2m2_3#139  a_2_3m2_0#140 
 a_2_3m2_1#141  a_2_3m2_2#142  a_2_3m2_3#143  a_0_0#144  a_0_1#145  a_0_2#146 
 a_0_3#147  a_1_0#148  a_1_1#149  a_1_2#150  a_1_3#151  a_2_0#152  a_2_1#153 
 a_2_2#154  a_2_3#155 
End
